db/data/518025612041911808163463350146758646.z3.out
sat
-------------------
.312834146
